NAME : traveling-santa-2018-prime-paths.30531.tour
COMMENT : Length = 30531
COMMENT : Found by LKH [Keld Helsgaun] Sun Jun 12 20:00:00 2022
TYPE : TOUR
DIMENSION : 100
TOUR_SECTION
1
62
45
44
42
29
28
15
83
17
88
33
60
5
46
78
97
6
14
52
81
82
39
2
4
98
76
87
37
20
36
65
31
9
90
55
41
38
57
94
54
73
70
71
26
63
74
58
35
96
32
16
61
72
7
86
11
84
24
13
30
40
12
75
19
64
93
25
59
18
89
66
50
68
3
56
79
49
53
85
77
34
43
8
21
47
23
69
27
80
67
48
99
10
95
92
22
51
91
100
-1
EOF
